NAME          
ROWS
 N  OBJ
 L  c1
COLUMNS
    MARKER    'MARKER'                 'INTORG'
    x[1]      c1        844
    x[1]      OBJ       -921
    x[2]      c1        835
    x[2]      OBJ       -927
    x[3]      c1        782
    x[3]      OBJ       -851
    x[4]      c1        864
    x[4]      OBJ       -827
    x[5]      c1        962
    x[5]      OBJ       -954
    x[6]      c1        847
    x[6]      OBJ       -904
    x[7]      c1        942
    x[7]      OBJ       -873
    x[8]      c1        791
    x[8]      OBJ       -886
    x[9]      c1        521
    x[9]      OBJ       -523
    x[10]     c1        124
    x[10]     OBJ       -31
    x[11]     c1        251
    x[11]     OBJ       -212
    x[12]     c1        249
    x[12]     OBJ       -325
    x[13]     c1        546
    x[13]     OBJ       -637
    x[14]     c1        154
    x[14]     OBJ       -235
    x[15]     c1        706
    x[15]     OBJ       -643
    x[16]     c1        91
    x[16]     OBJ       -50
    x[17]     c1        12
    x[17]     OBJ       -57
    x[18]     c1        322
    x[18]     OBJ       -373
    x[19]     c1        1017
    x[19]     OBJ       -950
    x[20]     c1        856
    x[20]     OBJ       -854
    x[21]     c1        637
    x[21]     OBJ       -665
    x[22]     c1        878
    x[22]     OBJ       -958
    x[23]     c1        860
    x[23]     OBJ       -778
    x[24]     c1        774
    x[24]     OBJ       -727
    x[25]     c1        152
    x[25]     OBJ       -76
    x[26]     c1        547
    x[26]     OBJ       -545
    x[27]     c1        722
    x[27]     OBJ       -646
    x[28]     c1        737
    x[28]     OBJ       -781
    x[29]     c1        668
    x[29]     OBJ       -760
    x[30]     c1        62
    x[30]     OBJ       -1
RHS
    rhs       c1        8876
RANGES
BOUNDS
 LO bounds    x[1]      0
 PL bounds    x[1]
 LO bounds    x[2]      0
 PL bounds    x[2]
 LO bounds    x[3]      0
 PL bounds    x[3]
 LO bounds    x[4]      0
 PL bounds    x[4]
 LO bounds    x[5]      0
 PL bounds    x[5]
 LO bounds    x[6]      0
 PL bounds    x[6]
 LO bounds    x[7]      0
 PL bounds    x[7]
 LO bounds    x[8]      0
 PL bounds    x[8]
 LO bounds    x[9]      0
 PL bounds    x[9]
 LO bounds    x[10]     0
 PL bounds    x[10]
 LO bounds    x[11]     0
 PL bounds    x[11]
 LO bounds    x[12]     0
 PL bounds    x[12]
 LO bounds    x[13]     0
 PL bounds    x[13]
 LO bounds    x[14]     0
 PL bounds    x[14]
 LO bounds    x[15]     0
 PL bounds    x[15]
 LO bounds    x[16]     0
 PL bounds    x[16]
 LO bounds    x[17]     0
 PL bounds    x[17]
 LO bounds    x[18]     0
 PL bounds    x[18]
 LO bounds    x[19]     0
 PL bounds    x[19]
 LO bounds    x[20]     0
 PL bounds    x[20]
 LO bounds    x[21]     0
 PL bounds    x[21]
 LO bounds    x[22]     0
 PL bounds    x[22]
 LO bounds    x[23]     0
 PL bounds    x[23]
 LO bounds    x[24]     0
 PL bounds    x[24]
 LO bounds    x[25]     0
 PL bounds    x[25]
 LO bounds    x[26]     0
 PL bounds    x[26]
 LO bounds    x[27]     0
 PL bounds    x[27]
 LO bounds    x[28]     0
 PL bounds    x[28]
 LO bounds    x[29]     0
 PL bounds    x[29]
 LO bounds    x[30]     0
 PL bounds    x[30]
ENDATA
